(set-logic ALL)
(set-option :produce-models true)
(define-fun-rec str.toLower ((x String)) String
  (ite (= x "")
      ""
      (let ((Head (str.at x 0)))
        (str.++ 
          (ite (and (<= 65 (str.to_code Head)) 
                     (<= (str.to_code Head) 90))
               (str.from_code (+ (str.to_code Head) 32))
               Head)
          (str.toLower (str.substr x 1 (- (str.len x) 1)))))))
(declare-fun sym1669 () String)
(declare-fun sym1985 () String)
(declare-fun sym1028 () String)
(declare-fun sym1896 () String)
(declare-fun sym1453 () String)
(declare-fun sym1244 () String)
(declare-fun sym205 () String)
(declare-fun sym547 () String)
(declare-fun sym812 () String)
(declare-fun sym161 () String)

(assert (not (= (str.toLower (str.substr sym1453  0 1))"q" )))
(assert (not (= (str.toLower (str.substr sym1985  0 1))"y" )))
(assert (not (= (str.toLower (str.substr sym1453  0 1))"k" )))
(assert (not (= "" "y" )))
(assert (not (= "y" "n" )))
(assert (not (= "n" "y" )))
(assert (= (str.toLower (str.substr sym1028  0 1))"g" ))
(assert (not (= (str.toLower (str.substr sym1669  0 1))"k" )))
(assert (not (= (str.toLower (str.substr sym1244  0 1))"k" )))
(assert (not (= "" sym1669 )))
(assert (not (= "" "n" )))
(assert (= (str.toLower (str.substr sym812  0 1))"g" ))
(assert (not (= "" sym1028 )))
(assert (not (= (str.toLower (str.substr sym1896  0 1))"r" )))
(assert (not (= "" sym1244 )))
(assert (= (str.toLower (str.substr sym1244  0 1))"g" ))
(assert (not (= (str.toLower (str.substr sym812  0 1))"q" )))
(assert (not (= (str.toLower (str.substr sym1669  0 1))"q" )))
(assert (not (= (str.toLower (str.substr sym1896  0 1))"l" )))
(assert (not (= "" (str.toLower (str.substr sym205  0 1)))))
(assert (= "y" "y" ))
(assert (not (= "" sym812 )))
(assert (not (= "" "y" )))
(assert (not (= "" sym205 )))
(assert (not (= "" "q" )))
(assert (not (= (str.toLower (str.substr sym1244  0 1))"p" )))
(assert (not (= (str.toLower (str.substr sym547  0 1))"p" )))
(assert (= (str.toLower (str.substr sym1896  0 1))"q" ))
(assert (= "" "" ))
(assert (= (str.toLower (str.substr sym205  0 1))"y" ))
(assert (not (= "" sym1896 )))
(assert (not (= (str.toLower (str.substr sym1896  0 1))"p" )))
(assert (not (= (str.toLower (str.substr sym1453  0 1))"p" )))
(assert (not (= "" (str.toLower (str.substr sym1985  0 1)))))
(assert (not (= (str.toLower (str.substr sym1028  0 1))"p" )))
(assert (not (= (str.toLower (str.substr sym1244  0 1))"q" )))
(assert (not (= (str.toLower (str.substr sym1896  0 1))"h" )))
(assert (= (str.toLower (str.substr sym547  0 1))"g" ))
(assert (not (= (str.toLower (str.substr sym1669  0 1))"p" )))
(assert (= (str.toLower (str.substr sym1896  0 1))"q" ))
(assert (not (= (str.toLower (str.substr sym1896  0 1))"k" )))
(assert (not (= "" sym547 )))
(assert (= (str.toLower (str.substr sym1453  0 1))"g" ))
(assert (not (= (str.toLower (str.substr sym1028  0 1))"q" )))
(assert (not (= (str.toLower (str.substr sym812  0 1))"p" )))
(assert (not (= (str.toLower (str.substr sym1896  0 1))"g" )))
(assert (= (str.toLower (str.substr sym1896  0 1))"q" ))
(assert (not (= (str.toLower (str.substr sym812  0 1))"k" )))
(assert (not (= (str.toLower (str.substr sym547  0 1))"q" )))
(assert (= (str.toLower (str.substr sym1669  0 1))"g" ))
(assert (not (= "" sym161 )))
(assert (not (= "" sym1985 )))
(assert (not (= (str.toLower (str.substr sym1028  0 1))"k" )))
(assert (not (= (str.toLower (str.substr sym547  0 1))"k" )))
(assert (not (= "" sym1453 )))
(check-sat)
(get-model)
(exit)
